sat
(:added-eqs                       4002102
 :arith-eq-adapter                12830
 :arith-bound-propagations-lp     43734
 :arith-branch                    80
 :arith-conflicts                 32069
 :arith-cube-calls                35
 :arith-diseq                     438686
 :arith-fixed-eqs                 328551
 :arith-gcd-calls                 655
 :arith-gcd-conflict              1
 :arith-gomory-cuts               23
 :arith-horner-calls              498
 :arith-horner-conflicts          47
 :arith-horner-cross-nested-forms 43733
 :arith-lower                     492459
 :arith-make-feasible             200498
 :arith-max-columns               15104
 :arith-max-rows                  6116
 :arith-nla-lemmas                17748
 :arith-nla-propagate-bounds      11392
 :arith-nla-propagate-eq          3290142
 :arith-nra-calls                 328
 :arith-offset-eqs                198794
 :arith-patches                   654
 :arith-patches-success           509
 :arith-upper                     373000
 :binary-propagations             1094282
 :conflicts                       4546
 :decisions                       494408
 :del-clause                      45390
 :final-checks                    4158
 :max-memory                      183.14
 :memory                          102.06
 :minimized-lits                  4695
 :mk-bool-var                     85467
 :mk-clause                       69920
 :mk-clause-binary                20258
 :nlsat-conflicts                 942
 :nlsat-decisions                 65
 :nlsat-propagations              99110
 :nlsat-stages                    2282
 :num-allocs                      2971278112760.00
 :num-checks                      2
 :propagations                    2148586
 :restarts                        35
 :rlimit-count                    82483564
 :time                            85.67
 :total-time                      85.69)
